Minimize
 obj: 0 X_0_1
Subject To
 out_0:
  + 1 X_0_1 + 1 X_0_2 + 1 X_0_3 + 1 X_0_4
  = 1
 in_0:
  + 1 X_1_0 + 1 X_2_0 + 1 X_3_0 + 1 X_4_0
  = 1
 out_1:
  + 1 X_1_0 + 1 X_1_2 + 1 X_1_3 + 1 X_1_4
  = 1
 in_1:
  + 1 X_0_1 + 1 X_2_1 + 1 X_3_1 + 1 X_4_1
  = 1
 out_2:
  + 1 X_2_0 + 1 X_2_1 + 1 X_2_3 + 1 X_2_4
  = 1
 in_2:
  + 1 X_0_2 + 1 X_1_2 + 1 X_3_2 + 1 X_4_2
  = 1
 out_3:
  + 1 X_3_0 + 1 X_3_1 + 1 X_3_2 + 1 X_3_4
  = 1
 in_3:
  + 1 X_0_3 + 1 X_1_3 + 1 X_2_3 + 1 X_4_3
  = 1
 out_4:
  + 1 X_4_0 + 1 X_4_1 + 1 X_4_2 + 1 X_4_3
  = 1
 in_4:
  + 1 X_0_4 + 1 X_1_4 + 1 X_2_4 + 1 X_3_4
  = 1
 mtz_1_2:
  + 1 U1 - 1 U2 + 4 X_1_2
  <= 3
 mtz_1_3:
  + 1 U1 - 1 U3 + 4 X_1_3
  <= 3
 mtz_1_4:
  + 1 U1 - 1 U4 + 4 X_1_4
  <= 3
 mtz_2_1:
  + 1 U2 - 1 U1 + 4 X_2_1
  <= 3
 mtz_2_3:
  + 1 U2 - 1 U3 + 4 X_2_3
  <= 3
 mtz_2_4:
  + 1 U2 - 1 U4 + 4 X_2_4
  <= 3
 mtz_3_1:
  + 1 U3 - 1 U1 + 4 X_3_1
  <= 3
 mtz_3_2:
  + 1 U3 - 1 U2 + 4 X_3_2
  <= 3
 mtz_3_4:
  + 1 U3 - 1 U4 + 4 X_3_4
  <= 3
 mtz_4_1:
  + 1 U4 - 1 U1 + 4 X_4_1
  <= 3
 mtz_4_2:
  + 1 U4 - 1 U2 + 4 X_4_2
  <= 3
 mtz_4_3:
  + 1 U4 - 1 U3 + 4 X_4_3
  <= 3
 obj1:
  + 368 X_0_1 + 407 X_0_2 + 823 X_0_3 + 775 X_0_4 + 368 X_1_0 + 601 X_1_2 + 977 X_1_3 + 724 X_1_4
  + 407 X_2_0 + 601 X_2_1 + 416 X_2_3 + 489 X_2_4 + 823 X_3_0 + 977 X_3_1 + 416 X_3_2 + 485 X_3_4
  + 775 X_4_0 + 724 X_4_1 + 489 X_4_2 + 485 X_4_3
  <= 1
 obj2:
  + 261 X_0_1 + 471 X_0_2 + 439 X_0_3 + 422 X_0_4 + 261 X_1_0 + 639 X_1_2 + 687 X_1_3 + 245 X_1_4
  + 471 X_2_0 + 639 X_2_1 + 295 X_2_3 + 865 X_2_4 + 439 X_3_0 + 687 X_3_1 + 295 X_3_2 + 859 X_3_4
  + 422 X_4_0 + 245 X_4_1 + 865 X_4_2 + 859 X_4_3
  <= 2
 obj3:
  + 440 X_0_1 + 374 X_0_2 + 745 X_0_3 + 446 X_0_4 + 440 X_1_0 + 124 X_1_2 + 755 X_1_3 + 772 X_1_4
  + 374 X_2_0 + 124 X_2_1 + 641 X_2_3 + 657 X_2_4 + 745 X_3_0 + 755 X_3_1 + 641 X_3_2 + 548 X_3_4
  + 446 X_4_0 + 772 X_4_1 + 657 X_4_2 + 548 X_4_3
  <= 3
 obj4:
  + 301 X_0_1 + 245 X_0_2 + 448 X_0_3 + 380 X_0_4 + 301 X_1_0 + 221 X_1_2 + 321 X_1_3 + 678 X_1_4
  + 245 X_2_0 + 221 X_2_1 + 203 X_2_3 + 553 X_2_4 + 448 X_3_0 + 321 X_3_1 + 203 X_3_2 + 731 X_3_4
  + 380 X_4_0 + 678 X_4_1 + 553 X_4_2 + 731 X_4_3
  <= 4
 obj5:
  + 425 X_0_1 + 527 X_0_2 + 377 X_0_3 + 517 X_0_4 + 425 X_1_0 + 666 X_1_2 + 47 X_1_3 + 937 X_1_4
  + 527 X_2_0 + 666 X_2_1 + 637 X_2_3 + 826 X_2_4 + 377 X_3_0 + 47 X_3_1 + 637 X_3_2 + 890 X_3_4
  + 517 X_4_0 + 937 X_4_1 + 826 X_4_2 + 890 X_4_3
  <= 5
 obj6:
  + 963 X_0_1 + 332 X_0_2 + 261 X_0_3 + 413 X_0_4 + 963 X_1_0 + 662 X_1_2 + 702 X_1_3 + 619 X_1_4
  + 332 X_2_0 + 662 X_2_1 + 112 X_2_3 + 302 X_2_4 + 261 X_3_0 + 702 X_3_1 + 112 X_3_2 + 224 X_3_4
  + 413 X_4_0 + 619 X_4_1 + 302 X_4_2 + 224 X_4_3
  <= 6
Bounds
 1 <= U1 <= 4
 1 <= U2 <= 4
 1 <= U3 <= 4
 1 <= U4 <= 4
Binary
 X_0_1
 X_0_2
 X_0_3
 X_0_4
 X_1_0
 X_1_2
 X_1_3
 X_1_4
 X_2_0
 X_2_1
 X_2_3
 X_2_4
 X_3_0
 X_3_1
 X_3_2
 X_3_4
 X_4_0
 X_4_1
 X_4_2
 X_4_3
End
